c preprocessed version of GossetGraph, 56 vertices, 756 edges
p td 56 756
0 1
0 2
0 3
0 4
0 5
0 6
0 7
0 8
0 9
0 10
0 11
0 12
0 13
0 14
0 21
0 22
0 23
0 24
0 25
0 26
0 27
0 34
0 45
0 52
0 53
0 54
0 55
1 2
1 3
1 4
1 5
1 6
1 7
1 8
1 12
1 15
1 16
1 17
1 18
1 19
1 21
1 23
1 28
1 29
1 30
1 31
1 32
1 34
1 45
1 52
1 53
1 54
1 55
2 3
2 4
2 5
2 8
2 9
2 13
2 15
2 18
2 21
2 22
2 25
2 26
2 28
2 30
2 31
2 35
2 36
2 41
2 44
2 48
3 4
3 6
3 8
3 10
3 13
3 16
3 18
3 21
3 22
3 25
3 27
3 28
3 30
3 32
3 35
3 37
3 42
3 46
3 48
4 7
4 8
4 11
4 13
4 17
4 18
4 21
4 22
4 26
4 27
4 28
4 31
4 32
4 36
4 37
4 43
4 47
4 48
5 6
5 7
5 8
5 9
5 14
5 15
5 19
5 21
5 24
5 25
5 26
5 29
5 30
5 31
5 38
5 39
5 41
5 44
5 49
6 7
6 8
6 10
6 14
6 16
6 19
6 21
6 24
6 25
6 27
6 29
6 30
6 32
6 38
6 40
6 42
6 46
6 49
7 8
7 11
7 14
7 17
7 19
7 21
7 24
7 26
7 27
7 29
7 31
7 32
7 39
7 40
7 43
7 47
7 49
8 13
8 14
8 18
8 19
8 21
8 25
8 26
8 27
8 30
8 31
8 32
8 41
8 42
8 43
8 48
8 49
9 10
9 11
9 13
9 14
9 15
9 20
9 22
9 24
9 25
9 26
9 33
9 35
9 36
9 38
9 39
9 41
9 44
9 50
10 11
10 13
10 14
10 16
10 20
10 22
10 24
10 25
10 27
10 33
10 35
10 37
10 38
10 40
10 42
10 46
10 50
11 13
11 14
11 17
11 20
11 22
11 24
11 26
11 27
11 33
11 36
11 37
11 39
11 40
11 43
11 47
11 50
12 2
12 3
12 4
12 9
12 10
12 11
12 13
12 15
12 16
12 17
12 18
12 20
12 22
12 23
12 28
12 33
12 34
12 35
12 36
12 37
12 45
12 52
12 53
12 54
12 55
13 14
13 18
13 20
13 22
13 25
13 26
13 27
13 35
13 36
13 37
13 41
13 42
13 43
13 48
13 50
14 19
14 20
14 24
14 25
14 26
14 27
14 38
14 39
14 40
14 41
14 42
14 43
14 49
14 50
15 16
15 17
15 18
15 19
15 20
15 28
15 29
15 30
15 31
15 33
15 35
15 36
15 38
15 39
15 41
15 44
15 51
16 17
16 18
16 19
16 20
16 28
16 29
16 30
16 32
16 33
16 35
16 37
16 38
16 40
16 42
16 46
16 51
17 18
17 19
17 20
17 28
17 29
17 31
17 32
17 33
17 36
17 37
17 39
17 40
17 43
17 47
17 51
18 19
18 20
18 28
18 30
18 31
18 32
18 35
18 36
18 37
18 41
18 42
18 43
18 48
18 51
19 20
19 29
19 30
19 31
19 32
19 38
19 39
19 40
19 41
19 42
19 43
19 49
19 51
20 33
20 35
20 36
20 37
20 38
20 39
20 40
20 41
20 42
20 43
20 50
20 51
21 22
21 24
21 25
21 26
21 27
21 28
21 29
21 30
21 31
21 32
21 44
21 46
21 47
21 48
21 49
22 24
22 25
22 26
22 27
22 28
22 33
22 35
22 36
22 37
22 44
22 46
22 47
22 48
22 50
23 5
23 6
23 7
23 9
23 10
23 11
23 14
23 15
23 16
23 17
23 19
23 20
23 24
23 29
23 33
23 34
23 38
23 39
23 40
23 45
23 52
23 53
23 54
23 55
24 25
24 26
24 27
24 29
24 33
24 38
24 39
24 40
24 44
24 46
24 47
24 49
24 50
25 26
25 27
25 30
25 35
25 38
25 41
25 42
25 44
25 46
25 48
25 49
25 50
26 27
26 31
26 36
26 39
26 41
26 43
26 44
26 47
26 48
26 49
26 50
27 32
27 37
27 40
27 42
27 43
27 46
27 47
27 48
27 49
27 50
28 29
28 30
28 31
28 32
28 33
28 35
28 36
28 37
28 44
28 46
28 47
28 48
28 51
29 30
29 31
29 32
29 33
29 38
29 39
29 40
29 44
29 46
29 47
29 49
29 51
30 31
30 32
30 35
30 38
30 41
30 42
30 44
30 46
30 48
30 49
30 51
31 32
31 36
31 39
31 41
31 43
31 44
31 47
31 48
31 49
31 51
32 37
32 40
32 42
32 43
32 46
32 47
32 48
32 49
32 51
33 35
33 36
33 37
33 38
33 39
33 40
33 44
33 46
33 47
33 50
33 51
34 2
34 3
34 5
34 6
34 8
34 9
34 10
34 13
34 14
34 15
34 16
34 18
34 19
34 20
34 25
34 30
34 35
34 38
34 41
34 42
34 45
34 52
34 53
35 36
35 37
35 38
35 41
35 42
35 44
35 46
35 48
35 50
35 51
36 37
36 39
36 41
36 43
36 44
36 47
36 48
36 50
36 51
37 40
37 42
37 43
37 46
37 47
37 48
37 50
37 51
38 39
38 40
38 41
38 42
38 44
38 46
38 49
38 50
38 51
39 40
39 41
39 43
39 44
39 47
39 49
39 50
39 51
40 42
40 43
40 46
40 47
40 49
40 50
40 51
41 42
41 43
41 44
41 48
41 49
41 50
41 51
42 43
42 46
42 48
42 49
42 50
42 51
43 47
43 48
43 49
43 50
43 51
44 46
44 47
44 48
44 49
44 50
44 51
45 2
45 4
45 5
45 7
45 8
45 9
45 11
45 13
45 14
45 15
45 17
45 18
45 19
45 20
45 26
45 31
45 36
45 39
45 41
45 43
45 52
45 54
46 47
46 48
46 49
46 50
46 51
47 48
47 49
47 50
47 51
48 49
48 50
48 51
49 50
49 51
50 51
52 3
52 4
52 6
52 7
52 8
52 10
52 11
52 13
52 14
52 16
52 17
52 18
52 19
52 20
52 27
52 32
52 37
52 40
52 42
52 43
52 55
53 2
53 3
53 5
53 6
53 9
53 10
53 15
53 16
53 21
53 22
53 24
53 25
53 28
53 29
53 30
53 33
53 35
53 38
53 44
53 46
53 54
53 55
54 2
54 4
54 5
54 7
54 9
54 11
54 15
54 17
54 21
54 22
54 24
54 26
54 28
54 29
54 31
54 33
54 36
54 39
54 44
54 47
54 55
55 3
55 4
55 6
55 7
55 10
55 11
55 16
55 17
55 21
55 22
55 24
55 27
55 28
55 29
55 32
55 33
55 37
55 40
55 46
55 47
